p cnf 28 80
4 -2 0
4 -3 0
2 3 -4 0
5 -4 0
5 2 0
4 -2 -5 0
6 1 0
6 -5 0
-1 5 -6 0
8 6 0
8 7 0
-6 -7 -8 0
9 -1 0
9 -3 0
1 3 -9 0
-10 -8 0
-10 9 0
8 -9 10 0
-11 5 -12 0
11 -5 -12 0
-11 -5 12 0
11 5 12 0
-10 -12 -13 0
10 12 -13 0
-10 12 13 0
10 -12 13 0
4 3 -14 0
-4 -3 -14 0
4 -3 14 0
-4 3 14 0
-17 15 0
-17 16 0
-15 -16 17 0
16 -18 -19 0
-16 18 -19 0
16 18 19 0
-16 -18 19 0
17 19 -20 0
-17 -19 -20 0
17 -19 20 0
-17 19 20 0
14 -20 -21 0
-14 20 -21 0
14 20 21 0
-14 -20 21 0
13 21 -22 0
-13 -21 -22 0
13 -21 22 0
-13 21 22 0
24 -23 0
24 -3 0
23 3 -24 0
25 -22 0
25 24 0
22 -24 -25 0
27 2 0
27 26 0
-2 -26 -27 0
28 -25 0
28 -27 0
25 27 -28 0
-22 5 25 0
21 -26 -3 -16 19 0
-18 13 26 -22 17 0
-4 8 -13 1 -20 15 0
12 -15 -8 0
-19 -23 -4 -21 12 0
-28 -23 -27 -1 0
-1 6 -27 10 0
3 -12 7 23 0
11 22 15 0
22 3 0
-3 -16 21 28 0
12 25 3 4 16 -17 0
-12 1 0
11 24 20 19 -16 18 0
-5 8 0
2 -16 3 -1 0
-22 27 0
28 0
